
  32    4
  10   10   10   10

   0   0   0   0   0   2 2 31 
   3   1   1   0   1   1 3 
   6   4   7   0   4   1 4 
  10   5   5   1   0   2 30 5 
   5   0   5   5   5   1 6 
   4   4   4   0   2   2 29 7 
   1   4   0   4   5   1 8 
   6   5   5   0   5   1 9 
   7   5   2   0   2   1 10 
   7   0   6   4   4   1 11 
   6   0   2   3   9   1 12 
   5   5   0   8   5   1 13 
   4   6   0   3   6   1 14 
  10   0   7   3   4   2 28 15 
   2   6   0   5   2   1 16 
   3   4   0   3   3   1 17 
   7   4   3   0   4   1 18 
   6   5   2   0   3   1 19 
   6   0   5   2   5   2 27 20 
   4   5   3   5   0   1 21 
   8   3   2   0   3   1 22 
   9   0   4   6   4   1 23 
   3   1   4   0   5   2 26 24 
  10   4   2   3   0   1 25 
   5   5   0   6   3   1 32
   9   0   3   3   4   1 32
   4   3   6   0   5   1 32
   7   3   0   4   2   1 32
   4   4   0   4   5   1 32
   3   5   3   0   2   1 32
   5   1   7   0   6   1 32
   0   0   0   0   0   0 
